12
0 73 8 19 83 63 81 41 61 93 52 80 
45 0 80 39 32 69 17 14 28 86 50 63 
12 13 0 79 8 29 62 71 60 68 28 52 
34 6 70 0 19 58 31 82 3 29 82 26 
13 63 72 79 0 56 35 27 78 94 67 93 
96 38 96 89 14 0 52 56 45 49 34 94 
8 2 28 15 86 49 0 26 75 33 91 32 
21 47 97 2 94 62 64 0 42 42 83 97 
59 13 18 42 7 66 40 74 0 67 74 42 
59 76 75 49 50 94 9 2 63 0 25 37 
32 52 36 8 12 70 37 10 85 41 0 28 
63 60 64 100 94 65 19 99 88 11 14 0 
